<?xml version="1.0" encoding="UTF-8"?><osil xmlns="os.optimizationservices.org"   xmlns:xsi="http://www.w3.org/2001/XMLSchema-instance" xsi:schemaLocation="os.optimizationservices.org http://www.optimizationservices.org/schemas/2.0/OSiL.xsd" ><instanceHeader><name>q_20_0_100_1</name></instanceHeader><instanceData><variables numberOfVariables="20"><var name="x1" ub="1"/><var name="x2" ub="1"/><var name="x3" ub="1"/><var name="x4" ub="1"/><var name="x5" ub="1"/><var name="x6" ub="1"/><var name="x7" ub="1"/><var name="x8" ub="1"/><var name="x9" ub="1"/><var name="x10" ub="1"/><var name="x11" ub="1"/><var name="x12" ub="1"/><var name="x13" ub="1"/><var name="x14" ub="1"/><var name="x15" ub="1"/><var name="x16" ub="1"/><var name="x17" ub="1"/><var name="x18" ub="1"/><var name="x19" ub="1"/><var name="x20" ub="1"/></variables><objectives numberOfObjectives="1"><obj maxOrMin="min" name="defObj_x21" numberOfObjCoef="20"><coef idx="0">.6888</coef><coef idx="1">-.4837</coef><coef idx="2">.6795</coef><coef idx="3">7.53e-2</coef><coef idx="4">.2431</coef><coef idx="5">-1.84e-2</coef><coef idx="6">-.4303</coef><coef idx="7">-.5289</coef><coef idx="8">.3028</coef><coef idx="9">.2143</coef><coef idx="10">-.2037</coef><coef idx="11">.6976</coef><coef idx="12">.2752</coef><coef idx="13">-.4824</coef><coef idx="14">-.2823</coef><coef idx="15">.1237</coef><coef idx="16">-.7571</coef><coef idx="17">.9569</coef><coef idx="18">-.2336</coef><coef idx="19">.4414</coef></obj></objectives><quadraticCoefficients  numberOfQuadraticTerms="210" ><qTerm  idx="-1"  idxOne="0"  idxTwo="0"  coef=".9951"/><qTerm  idx="-1"  idxOne="0"  idxTwo="1"  coef=".1336"/><qTerm  idx="-1"  idxOne="0"  idxTwo="2"  coef=".9318"/><qTerm  idx="-1"  idxOne="0"  idxTwo="3"  coef=".4959"/><qTerm  idx="-1"  idxOne="0"  idxTwo="4"  coef="-.2652"/><qTerm  idx="-1"  idxOne="0"  idxTwo="5"  coef="-3.87e-2"/><qTerm  idx="-1"  idxOne="0"  idxTwo="6"  coef="-.8525"/><qTerm  idx="-1"  idxOne="0"  idxTwo="7"  coef="-.9893"/><qTerm  idx="-1"  idxOne="0"  idxTwo="8"  coef="-.3058"/><qTerm  idx="-1"  idxOne="0"  idxTwo="9"  coef="-.3155"/><qTerm  idx="-1"  idxOne="0"  idxTwo="10"  coef="-.5641"/><qTerm  idx="-1"  idxOne="0"  idxTwo="11"  coef="-.7337"/><qTerm  idx="-1"  idxOne="0"  idxTwo="12"  coef=".801"/><qTerm  idx="-1"  idxOne="0"  idxTwo="13"  coef="-.2265"/><qTerm  idx="-1"  idxOne="0"  idxTwo="14"  coef="-.109"/><qTerm  idx="-1"  idxOne="0"  idxTwo="15"  coef=".3239"/><qTerm  idx="-1"  idxOne="0"  idxTwo="16"  coef="-.9678"/><qTerm  idx="-1"  idxOne="0"  idxTwo="17"  coef=".3017"/><qTerm  idx="-1"  idxOne="0"  idxTwo="18"  coef=".2928"/><qTerm  idx="-1"  idxOne="0"  idxTwo="19"  coef="-.354"/><qTerm  idx="-1"  idxOne="1"  idxTwo="1"  coef=".7114"/><qTerm  idx="-1"  idxOne="1"  idxTwo="2"  coef="-.1974"/><qTerm  idx="-1"  idxOne="1"  idxTwo="3"  coef="-.5863"/><qTerm  idx="-1"  idxOne="1"  idxTwo="4"  coef=".9371"/><qTerm  idx="-1"  idxOne="1"  idxTwo="5"  coef=".1968"/><qTerm  idx="-1"  idxOne="1"  idxTwo="6"  coef=".346"/><qTerm  idx="-1"  idxOne="1"  idxTwo="7"  coef="-8.62e-2"/><qTerm  idx="-1"  idxOne="1"  idxTwo="8"  coef="-.34"/><qTerm  idx="-1"  idxOne="1"  idxTwo="9"  coef="-.7992"/><qTerm  idx="-1"  idxOne="1"  idxTwo="10"  coef=".5109"/><qTerm  idx="-1"  idxOne="1"  idxTwo="11"  coef=".2114"/><qTerm  idx="-1"  idxOne="1"  idxTwo="12"  coef=".4381"/><qTerm  idx="-1"  idxOne="1"  idxTwo="13"  coef=".7947"/><qTerm  idx="-1"  idxOne="1"  idxTwo="14"  coef=".3165"/><qTerm  idx="-1"  idxOne="1"  idxTwo="15"  coef="-.6986"/><qTerm  idx="-1"  idxOne="1"  idxTwo="16"  coef=".2246"/><qTerm  idx="-1"  idxOne="1"  idxTwo="17"  coef=".9573"/><qTerm  idx="-1"  idxOne="1"  idxTwo="18"  coef=".9983"/><qTerm  idx="-1"  idxOne="1"  idxTwo="19"  coef="-.4864"/><qTerm  idx="-1"  idxOne="2"  idxTwo="2"  coef=".1017"/><qTerm  idx="-1"  idxOne="2"  idxTwo="3"  coef=".3181"/><qTerm  idx="-1"  idxOne="2"  idxTwo="4"  coef=".108"/><qTerm  idx="-1"  idxOne="2"  idxTwo="5"  coef=".9555"/><qTerm  idx="-1"  idxOne="2"  idxTwo="6"  coef=".8038"/><qTerm  idx="-1"  idxOne="2"  idxTwo="7"  coef=".3158"/><qTerm  idx="-1"  idxOne="2"  idxTwo="8"  coef=".4577"/><qTerm  idx="-1"  idxOne="2"  idxTwo="9"  coef="-.1951"/><qTerm  idx="-1"  idxOne="2"  idxTwo="10"  coef=".8573"/><qTerm  idx="-1"  idxOne="2"  idxTwo="11"  coef="-.7043"/><qTerm  idx="-1"  idxOne="2"  idxTwo="12"  coef=".3491"/><qTerm  idx="-1"  idxOne="2"  idxTwo="13"  coef=".5392"/><qTerm  idx="-1"  idxOne="2"  idxTwo="14"  coef="-.3214"/><qTerm  idx="-1"  idxOne="2"  idxTwo="15"  coef="-.7684"/><qTerm  idx="-1"  idxOne="2"  idxTwo="16"  coef=".2287"/><qTerm  idx="-1"  idxOne="2"  idxTwo="17"  coef=".6412"/><qTerm  idx="-1"  idxOne="2"  idxTwo="18"  coef=".8942"/><qTerm  idx="-1"  idxOne="2"  idxTwo="19"  coef=".4623"/><qTerm  idx="-1"  idxOne="3"  idxTwo="3"  coef="-4.8e-3"/><qTerm  idx="-1"  idxOne="3"  idxTwo="4"  coef="-.2504"/><qTerm  idx="-1"  idxOne="3"  idxTwo="5"  coef="-.157"/><qTerm  idx="-1"  idxOne="3"  idxTwo="6"  coef=".1058"/><qTerm  idx="-1"  idxOne="3"  idxTwo="7"  coef=".9958"/><qTerm  idx="-1"  idxOne="3"  idxTwo="8"  coef=".9808"/><qTerm  idx="-1"  idxOne="3"  idxTwo="9"  coef=".4926"/><qTerm  idx="-1"  idxOne="3"  idxTwo="10"  coef=".9075"/><qTerm  idx="-1"  idxOne="3"  idxTwo="11"  coef="-.8135"/><qTerm  idx="-1"  idxOne="3"  idxTwo="12"  coef=".468"/><qTerm  idx="-1"  idxOne="3"  idxTwo="13"  coef=".5035"/><qTerm  idx="-1"  idxOne="3"  idxTwo="14"  coef=".8937"/><qTerm  idx="-1"  idxOne="3"  idxTwo="15"  coef=".4124"/><qTerm  idx="-1"  idxOne="3"  idxTwo="16"  coef=".6276"/><qTerm  idx="-1"  idxOne="3"  idxTwo="17"  coef=".1172"/><qTerm  idx="-1"  idxOne="3"  idxTwo="18"  coef="-.8766"/><qTerm  idx="-1"  idxOne="3"  idxTwo="19"  coef="-3.92e-2"/><qTerm  idx="-1"  idxOne="4"  idxTwo="4"  coef=".1954"/><qTerm  idx="-1"  idxOne="4"  idxTwo="5"  coef="-.7249"/><qTerm  idx="-1"  idxOne="4"  idxTwo="6"  coef=".1748"/><qTerm  idx="-1"  idxOne="4"  idxTwo="7"  coef="3.99e-2"/><qTerm  idx="-1"  idxOne="4"  idxTwo="8"  coef=".7718"/><qTerm  idx="-1"  idxOne="4"  idxTwo="9"  coef="-.3924"/><qTerm  idx="-1"  idxOne="4"  idxTwo="10"  coef=".3393"/><qTerm  idx="-1"  idxOne="4"  idxTwo="11"  coef=".3299"/><qTerm  idx="-1"  idxOne="4"  idxTwo="12"  coef="7.4e-3"/><qTerm  idx="-1"  idxOne="4"  idxTwo="13"  coef="-.4768"/><qTerm  idx="-1"  idxOne="4"  idxTwo="14"  coef="-.8469"/><qTerm  idx="-1"  idxOne="4"  idxTwo="15"  coef="-.7975"/><qTerm  idx="-1"  idxOne="4"  idxTwo="16"  coef="9.85e-2"/><qTerm  idx="-1"  idxOne="4"  idxTwo="17"  coef="-.2488"/><qTerm  idx="-1"  idxOne="4"  idxTwo="18"  coef="-.9697"/><qTerm  idx="-1"  idxOne="4"  idxTwo="19"  coef=".5858"/><qTerm  idx="-1"  idxOne="5"  idxTwo="5"  coef=".2418"/><qTerm  idx="-1"  idxOne="5"  idxTwo="6"  coef=".5472"/><qTerm  idx="-1"  idxOne="5"  idxTwo="7"  coef=".9072"/><qTerm  idx="-1"  idxOne="5"  idxTwo="8"  coef="-.7715"/><qTerm  idx="-1"  idxOne="5"  idxTwo="9"  coef="-.3631"/><qTerm  idx="-1"  idxOne="5"  idxTwo="10"  coef=".1936"/><qTerm  idx="-1"  idxOne="5"  idxTwo="11"  coef="-.9037"/><qTerm  idx="-1"  idxOne="5"  idxTwo="12"  coef="-.7716"/><qTerm  idx="-1"  idxOne="5"  idxTwo="13"  coef="-.5681"/><qTerm  idx="-1"  idxOne="5"  idxTwo="14"  coef="-.7989"/><qTerm  idx="-1"  idxOne="5"  idxTwo="15"  coef="-.8533"/><qTerm  idx="-1"  idxOne="5"  idxTwo="16"  coef="-.5063"/><qTerm  idx="-1"  idxOne="5"  idxTwo="17"  coef="-.1132"/><qTerm  idx="-1"  idxOne="5"  idxTwo="18"  coef="-.5833"/><qTerm  idx="-1"  idxOne="5"  idxTwo="19"  coef=".134"/><qTerm  idx="-1"  idxOne="6"  idxTwo="6"  coef="-.9514"/><qTerm  idx="-1"  idxOne="6"  idxTwo="7"  coef="-.1594"/><qTerm  idx="-1"  idxOne="6"  idxTwo="8"  coef="-.2043"/><qTerm  idx="-1"  idxOne="6"  idxTwo="9"  coef=".9532"/><qTerm  idx="-1"  idxOne="6"  idxTwo="10"  coef=".3852"/><qTerm  idx="-1"  idxOne="6"  idxTwo="11"  coef="-.9901"/><qTerm  idx="-1"  idxOne="6"  idxTwo="12"  coef="-.7402"/><qTerm  idx="-1"  idxOne="6"  idxTwo="13"  coef="-.9064"/><qTerm  idx="-1"  idxOne="6"  idxTwo="14"  coef=".6796"/><qTerm  idx="-1"  idxOne="6"  idxTwo="15"  coef=".357"/><qTerm  idx="-1"  idxOne="6"  idxTwo="16"  coef=".1639"/><qTerm  idx="-1"  idxOne="6"  idxTwo="17"  coef=".4671"/><qTerm  idx="-1"  idxOne="6"  idxTwo="18"  coef="-.7679"/><qTerm  idx="-1"  idxOne="6"  idxTwo="19"  coef=".6806"/><qTerm  idx="-1"  idxOne="7"  idxTwo="7"  coef=".67"/><qTerm  idx="-1"  idxOne="7"  idxTwo="8"  coef=".4931"/><qTerm  idx="-1"  idxOne="7"  idxTwo="9"  coef=".6864"/><qTerm  idx="-1"  idxOne="7"  idxTwo="10"  coef="5.77e-2"/><qTerm  idx="-1"  idxOne="7"  idxTwo="11"  coef=".331"/><qTerm  idx="-1"  idxOne="7"  idxTwo="12"  coef=".4615"/><qTerm  idx="-1"  idxOne="7"  idxTwo="13"  coef="-.1788"/><qTerm  idx="-1"  idxOne="7"  idxTwo="14"  coef="-.2886"/><qTerm  idx="-1"  idxOne="7"  idxTwo="15"  coef=".4708"/><qTerm  idx="-1"  idxOne="7"  idxTwo="16"  coef="-5.74e-2"/><qTerm  idx="-1"  idxOne="7"  idxTwo="17"  coef="-7.47e-2"/><qTerm  idx="-1"  idxOne="7"  idxTwo="18"  coef=".5194"/><qTerm  idx="-1"  idxOne="7"  idxTwo="19"  coef=".4049"/><qTerm  idx="-1"  idxOne="8"  idxTwo="8"  coef="-.4841"/><qTerm  idx="-1"  idxOne="8"  idxTwo="9"  coef=".8754"/><qTerm  idx="-1"  idxOne="8"  idxTwo="10"  coef="-8.78e-2"/><qTerm  idx="-1"  idxOne="8"  idxTwo="11"  coef=".617"/><qTerm  idx="-1"  idxOne="8"  idxTwo="12"  coef=".8177"/><qTerm  idx="-1"  idxOne="8"  idxTwo="13"  coef=".3898"/><qTerm  idx="-1"  idxOne="8"  idxTwo="14"  coef="-.561"/><qTerm  idx="-1"  idxOne="8"  idxTwo="15"  coef=".7099"/><qTerm  idx="-1"  idxOne="8"  idxTwo="16"  coef=".4888"/><qTerm  idx="-1"  idxOne="8"  idxTwo="17"  coef="-.3978"/><qTerm  idx="-1"  idxOne="8"  idxTwo="18"  coef=".3439"/><qTerm  idx="-1"  idxOne="8"  idxTwo="19"  coef=".2374"/><qTerm  idx="-1"  idxOne="9"  idxTwo="9"  coef=".9351"/><qTerm  idx="-1"  idxOne="9"  idxTwo="10"  coef=".9805"/><qTerm  idx="-1"  idxOne="9"  idxTwo="11"  coef="-.324"/><qTerm  idx="-1"  idxOne="9"  idxTwo="12"  coef=".8415"/><qTerm  idx="-1"  idxOne="9"  idxTwo="13"  coef="-.3219"/><qTerm  idx="-1"  idxOne="9"  idxTwo="14"  coef=".8619"/><qTerm  idx="-1"  idxOne="9"  idxTwo="15"  coef="9.31e-2"/><qTerm  idx="-1"  idxOne="9"  idxTwo="16"  coef="-6.9e-2"/><qTerm  idx="-1"  idxOne="9"  idxTwo="17"  coef="-.6462"/><qTerm  idx="-1"  idxOne="9"  idxTwo="18"  coef="-.244"/><qTerm  idx="-1"  idxOne="9"  idxTwo="19"  coef="-.6496"/><qTerm  idx="-1"  idxOne="10"  idxTwo="10"  coef="-.2863"/><qTerm  idx="-1"  idxOne="10"  idxTwo="11"  coef=".3314"/><qTerm  idx="-1"  idxOne="10"  idxTwo="12"  coef=".2371"/><qTerm  idx="-1"  idxOne="10"  idxTwo="13"  coef="-6.21e-2"/><qTerm  idx="-1"  idxOne="10"  idxTwo="14"  coef="-.3675"/><qTerm  idx="-1"  idxOne="10"  idxTwo="15"  coef="-.4622"/><qTerm  idx="-1"  idxOne="10"  idxTwo="16"  coef="-.6002"/><qTerm  idx="-1"  idxOne="10"  idxTwo="17"  coef="-.1691"/><qTerm  idx="-1"  idxOne="10"  idxTwo="18"  coef=".9586"/><qTerm  idx="-1"  idxOne="10"  idxTwo="19"  coef="8.64e-2"/><qTerm  idx="-1"  idxOne="11"  idxTwo="11"  coef="-.741"/><qTerm  idx="-1"  idxOne="11"  idxTwo="12"  coef=".6095"/><qTerm  idx="-1"  idxOne="11"  idxTwo="13"  coef=".6916"/><qTerm  idx="-1"  idxOne="11"  idxTwo="14"  coef=".4181"/><qTerm  idx="-1"  idxOne="11"  idxTwo="15"  coef="5.79e-2"/><qTerm  idx="-1"  idxOne="11"  idxTwo="16"  coef=".3277"/><qTerm  idx="-1"  idxOne="11"  idxTwo="17"  coef=".8015"/><qTerm  idx="-1"  idxOne="11"  idxTwo="18"  coef=".8823"/><qTerm  idx="-1"  idxOne="11"  idxTwo="19"  coef="-.7712"/><qTerm  idx="-1"  idxOne="12"  idxTwo="12"  coef=".7333"/><qTerm  idx="-1"  idxOne="12"  idxTwo="13"  coef=".2647"/><qTerm  idx="-1"  idxOne="12"  idxTwo="14"  coef="-.5144"/><qTerm  idx="-1"  idxOne="12"  idxTwo="15"  coef="-.6792"/><qTerm  idx="-1"  idxOne="12"  idxTwo="16"  coef="-.9575"/><qTerm  idx="-1"  idxOne="12"  idxTwo="17"  coef="-.6195"/><qTerm  idx="-1"  idxOne="12"  idxTwo="18"  coef="-.3753"/><qTerm  idx="-1"  idxOne="12"  idxTwo="19"  coef=".6193"/><qTerm  idx="-1"  idxOne="13"  idxTwo="13"  coef=".1474"/><qTerm  idx="-1"  idxOne="13"  idxTwo="14"  coef=".6525"/><qTerm  idx="-1"  idxOne="13"  idxTwo="15"  coef="-.4271"/><qTerm  idx="-1"  idxOne="13"  idxTwo="16"  coef="-.679"/><qTerm  idx="-1"  idxOne="13"  idxTwo="17"  coef="-.3382"/><qTerm  idx="-1"  idxOne="13"  idxTwo="18"  coef="-.4683"/><qTerm  idx="-1"  idxOne="13"  idxTwo="19"  coef="8.96e-2"/><qTerm  idx="-1"  idxOne="14"  idxTwo="14"  coef=".107"/><qTerm  idx="-1"  idxOne="14"  idxTwo="15"  coef="-.9568"/><qTerm  idx="-1"  idxOne="14"  idxTwo="16"  coef="-.7025"/><qTerm  idx="-1"  idxOne="14"  idxTwo="17"  coef="-.7902"/><qTerm  idx="-1"  idxOne="14"  idxTwo="18"  coef=".2284"/><qTerm  idx="-1"  idxOne="14"  idxTwo="19"  coef="-.1874"/><qTerm  idx="-1"  idxOne="15"  idxTwo="15"  coef=".8031"/><qTerm  idx="-1"  idxOne="15"  idxTwo="16"  coef=".8857"/><qTerm  idx="-1"  idxOne="15"  idxTwo="17"  coef="-.6868"/><qTerm  idx="-1"  idxOne="15"  idxTwo="18"  coef=".8739"/><qTerm  idx="-1"  idxOne="15"  idxTwo="19"  coef="-.7291"/><qTerm  idx="-1"  idxOne="16"  idxTwo="16"  coef="-.2574"/><qTerm  idx="-1"  idxOne="16"  idxTwo="17"  coef="-.357"/><qTerm  idx="-1"  idxOne="16"  idxTwo="18"  coef=".4299"/><qTerm  idx="-1"  idxOne="16"  idxTwo="19"  coef=".4594"/><qTerm  idx="-1"  idxOne="17"  idxTwo="17"  coef="-.2428"/><qTerm  idx="-1"  idxOne="17"  idxTwo="18"  coef=".6579"/><qTerm  idx="-1"  idxOne="17"  idxTwo="19"  coef=".9073"/><qTerm  idx="-1"  idxOne="18"  idxTwo="18"  coef="-.3832"/><qTerm  idx="-1"  idxOne="18"  idxTwo="19"  coef=".1595"/><qTerm  idx="-1"  idxOne="19"  idxTwo="19"  coef="-.5331"/></quadraticCoefficients></instanceData></osil>
